
(set-logic HORN)
(declare-fun Z_1941 () Int)
(declare-fun S_432 (Int) Int)
(declare-fun diseqInt (Int Int) Bool)
(declare-fun unS_643 (Int Int) Bool)
(declare-fun isZ_399 (Int) Bool)
(declare-fun isS_399 (Int) Bool)
(assert (forall ((x_54284 Int))
	(unS_643 x_54284 (S_432 x_54284))))
(assert (isZ_399 Z_1941))
(assert (forall ((x_54286 Int))
	(isS_399 (S_432 x_54286))))
(assert (forall ((x_54287 Int))
	(diseqInt Z_1941 (S_432 x_54287))))
(assert (forall ((x_54288 Int))
	(diseqInt (S_432 x_54288) Z_1941)))
(assert (forall ((x_54289 Int) (x_54290 Int))
	(=> (diseqInt x_54289 x_54290) (diseqInt (S_432 x_54289) (S_432 x_54290)))))
(declare-fun add_347 (Int Int Int) Bool)
(declare-fun minus_342 (Int Int Int) Bool)
(declare-fun le_321 (Int Int) Bool)
(declare-fun ge_321 (Int Int) Bool)
(declare-fun lt_341 (Int Int) Bool)
(declare-fun gt_324 (Int Int) Bool)
(declare-fun mult_321 (Int Int Int) Bool)
(declare-fun div_321 (Int Int Int) Bool)
(declare-fun mod_323 (Int Int Int) Bool)
(assert (forall ((y_2175 Int))
	(add_347 y_2175 Z_1941 y_2175)))
(assert (forall ((x_54268 Int) (y_2175 Int) (r_394 Int))
	(=> (add_347 r_394 x_54268 y_2175) (add_347 (S_432 r_394) (S_432 x_54268) y_2175))))
(assert (forall ((y_2175 Int))
	(minus_342 Z_1941 Z_1941 y_2175)))
(assert (forall ((x_54268 Int) (y_2175 Int) (r_394 Int))
	(=> (minus_342 r_394 x_54268 y_2175) (minus_342 (S_432 r_394) (S_432 x_54268) y_2175))))
(assert (forall ((y_2175 Int))
	(le_321 Z_1941 y_2175)))
(assert (forall ((x_54268 Int) (y_2175 Int))
	(=> (le_321 x_54268 y_2175) (le_321 (S_432 x_54268) (S_432 y_2175)))))
(assert (forall ((y_2175 Int))
	(ge_321 y_2175 Z_1941)))
(assert (forall ((x_54268 Int) (y_2175 Int))
	(=> (ge_321 x_54268 y_2175) (ge_321 (S_432 x_54268) (S_432 y_2175)))))
(assert (forall ((y_2175 Int))
	(lt_341 Z_1941 (S_432 y_2175))))
(assert (forall ((x_54268 Int) (y_2175 Int))
	(=> (lt_341 x_54268 y_2175) (lt_341 (S_432 x_54268) (S_432 y_2175)))))
(assert (forall ((y_2175 Int))
	(gt_324 (S_432 y_2175) Z_1941)))
(assert (forall ((x_54268 Int) (y_2175 Int))
	(=> (gt_324 x_54268 y_2175) (gt_324 (S_432 x_54268) (S_432 y_2175)))))
(assert (forall ((y_2175 Int))
	(mult_321 Z_1941 Z_1941 y_2175)))
(assert (forall ((x_54268 Int) (y_2175 Int) (r_394 Int) (z_1942 Int))
	(=> (and (mult_321 r_394 x_54268 y_2175) (add_347 z_1942 r_394 y_2175)) (mult_321 z_1942 (S_432 x_54268) y_2175))))
(assert (forall ((x_54268 Int) (y_2175 Int))
	(=> (lt_341 x_54268 y_2175) (div_321 Z_1941 x_54268 y_2175))))
(assert (forall ((x_54268 Int) (y_2175 Int) (r_394 Int) (z_1942 Int))
	(=> (and (ge_321 x_54268 y_2175) (minus_342 z_1942 x_54268 y_2175) (div_321 r_394 z_1942 y_2175)) (div_321 (S_432 r_394) x_54268 y_2175))))
(assert (forall ((x_54268 Int) (y_2175 Int))
	(=> (lt_341 x_54268 y_2175) (mod_323 x_54268 x_54268 y_2175))))
(assert (forall ((x_54268 Int) (y_2175 Int) (r_394 Int) (z_1942 Int))
	(=> (and (ge_321 x_54268 y_2175) (minus_342 z_1942 x_54268 y_2175) (mod_323 r_394 z_1942 y_2175)) (mod_323 r_394 x_54268 y_2175))))
(declare-datatypes ((list_226 0)) (((nil_256) (cons_226 (head_452 Int) (tail_452 list_226)))))
(declare-fun diseqlist_226 (list_226 list_226) Bool)
(declare-fun head_453 (Int list_226) Bool)
(declare-fun tail_453 (list_226 list_226) Bool)
(declare-fun isnil_256 (list_226) Bool)
(declare-fun iscons_226 (list_226) Bool)
(assert (forall ((x_54270 Int) (x_54271 list_226))
	(head_453 x_54270 (cons_226 x_54270 x_54271))))
(assert (forall ((x_54270 Int) (x_54271 list_226))
	(tail_453 x_54271 (cons_226 x_54270 x_54271))))
(assert (isnil_256 nil_256))
(assert (forall ((x_54273 Int) (x_54274 list_226))
	(iscons_226 (cons_226 x_54273 x_54274))))
(assert (forall ((x_54275 Int) (x_54276 list_226))
	(diseqlist_226 nil_256 (cons_226 x_54275 x_54276))))
(assert (forall ((x_54277 Int) (x_54278 list_226))
	(diseqlist_226 (cons_226 x_54277 x_54278) nil_256)))
(assert (forall ((x_54279 Int) (x_54280 list_226) (x_54281 Int) (x_54282 list_226))
	(=> (diseqInt x_54279 x_54281) (diseqlist_226 (cons_226 x_54279 x_54280) (cons_226 x_54281 x_54282)))))
(assert (forall ((x_54279 Int) (x_54280 list_226) (x_54281 Int) (x_54282 list_226))
	(=> (diseqlist_226 x_54280 x_54282) (diseqlist_226 (cons_226 x_54279 x_54280) (cons_226 x_54281 x_54282)))))
(declare-fun qrev_0 (list_226 list_226 list_226) Bool)
(assert (forall ((x_54263 list_226) (z_1940 Int) (xs_619 list_226) (y_2174 list_226))
	(=> (qrev_0 x_54263 xs_619 (cons_226 z_1940 y_2174)) (qrev_0 x_54263 (cons_226 z_1940 xs_619) y_2174))))
(assert (forall ((x_54265 list_226))
	(qrev_0 x_54265 nil_256 x_54265)))
(assert (forall ((x_54266 list_226) (x_54267 list_226) (x_54262 list_226))
	(=> (and true (diseqlist_226 x_54267 x_54262) (qrev_0 x_54266 x_54262 nil_256) (qrev_0 x_54267 x_54266 nil_256)) false)))
(check-sat)
